\* Problem: Unknown *\

Maximize
 obj: + xp_0_0 + xp_0_1 + xp_1_0 + xp_2_0 + xp_2_1 + xp_3_0 + xp_3_1
 + xp_4_0 + xp_5_0 + xp_6_0 + xp_6_1 + xp_7_0 + xp_8_0 + xp_9_0
 + xp_10_0 + xp_10_1 + xp_10_2 + xp_11_0 + xp_12_0 + xp_12_1 + xp_12_2
 + xp_13_0 + xp_14_0 + xp_15_0 + xp_15_1 + xp_16_0 + xp_17_0 + xp_17_1
 + xp_17_2 + xp_18_0 + xp_18_1 + xp_19_0 + xp_20_0 + xp_21_0 + xp_21_1
 + xp_21_2 + xp_22_0 + xp_22_1 + xp_22_2 + xp_23_0 + xp_24_0 + xp_24_1
 + xp_24_2 + xp_25_0 + xp_26_0 + xp_27_0 + xp_28_0 + xp_28_1 + xp_29_0
 + xp_30_0 + xp_31_0 + xp_31_1 + xp_32_0 + xp_33_0 + xp_34_0 + xp_35_0
 + xp_36_0 + xp_37_0 + xp_38_0 + xp_38_1 + xp_39_0 + xp_40_0 + xp_40_1
 + xp_41_0 + xp_42_0 + xp_42_1 + xp_42_2 + xp_43_0 + xp_44_0 + xp_44_1
 + xp_45_0 + xp_46_0 + xp_47_0 + xp_48_0 + xp_48_1 + xp_48_2 + xp_49_0
 + xp_50_0 + xp_51_0 + xp_52_0 + xp_52_1 + xp_53_0 + xp_54_0 + xp_55_0
 + xp_55_1 + xp_56_0 + xp_57_0 + xp_58_0 + xp_59_0 + xp_60_0 + xp_60_1
 + xp_60_2 + xp_61_0 + xp_62_0 + xp_63_0 + xp_64_0 + xp_65_0

Subject To
 r_1: + xp_53_0 + xp_51_0 + xp_48_1 + xp_42_1 + xp_40_0 + xp_35_0
 + xp_33_0 <= 153.637538779731
 r_2: + xp_24_2 + xp_15_1 <= 153.637538779731
 r_3: + xp_56_0 + xp_21_0 + xp_12_0 <= 153.637538779731
 r_4: + xp_65_0 + xp_50_0 + xp_48_1 + xp_45_0 + xp_24_1 + xp_24_0
 + xp_21_2 + xp_15_0 + xp_12_2 + xp_10_1 + xp_10_0 + xp_5_0 + xp_2_1
 <= 153.637538779731
 r_5: + xp_38_0 + xp_31_1 + xp_17_0 + xp_14_0 <= 140.385468663339
 r_6: + xp_52_1 + xp_22_2 + xp_22_0 + xp_21_1 + xp_17_1 + xp_13_0
 + xp_12_1 + xp_10_2 + xp_3_0 + xp_2_0 <= 148.340353833193
 r_7: + xp_60_2 + xp_60_1 + xp_48_2 + xp_46_0 + xp_42_2 + xp_42_0
 + xp_40_1 + xp_0_0 <= 149.23665791776
 r_8: 0 xp_0_0 <= 151.25355450237
 r_9: + xp_64_0 + xp_25_0 + xp_24_2 + xp_21_0 + xp_6_0 <= 155
 r_10: + xp_63_0 <= 149.23665791776
 r_11: + xp_60_1 + xp_60_0 + xp_38_1 + xp_31_0 <= 155
 r_12: + xp_62_0 + xp_61_0 + xp_60_2 + xp_22_1 + xp_3_1
 <= 148.340353833193
 r_13: + xp_64_0 + xp_59_0 + xp_56_0 + xp_29_0 + xp_24_2 + xp_21_0
 + xp_20_0 + xp_15_1 + xp_12_0 <= 153.637538779731
 r_14: + xp_57_0 + xp_53_0 + xp_48_1 + xp_42_2 + xp_42_1 + xp_35_0
 + xp_18_0 <= 155
 r_15: + xp_58_0 <= 149.23665791776
 r_16: + xp_65_0 + xp_55_0 + xp_53_0 + xp_51_0 + xp_50_0 + xp_48_1
 + xp_44_1 + xp_10_1 + xp_10_0 <= 153.637538779731
 r_17: + xp_54_0 + xp_52_1 + xp_36_0 + xp_31_1 <= 153.637538779731
 r_18: + xp_55_1 + xp_52_0 + xp_21_2 + xp_12_2 + xp_2_1
 <= 153.637538779731
 r_19: + xp_60_0 + xp_48_0 <= 151.25355450237
 r_20: + xp_60_1 + xp_50_0 + xp_49_0 + xp_48_2 + xp_48_1 + xp_46_0
 + xp_45_0 + xp_10_2 + xp_10_1 <= 140.385468663339
 r_21: + xp_47_0 + xp_26_0 + xp_22_1 + xp_17_2 + xp_17_0 + xp_7_0
 + xp_3_1 <= 155
 r_22: + xp_61_0 + xp_60_2 + xp_43_0 + xp_42_2 + xp_42_0 + xp_40_1
 + xp_38_0 <= 148.340353833193
 r_23: + xp_56_0 + xp_52_1 + xp_52_0 + xp_41_0 + xp_38_1 + xp_34_0
 + xp_31_0 + xp_17_1 <= 148.340353833193
 r_24: + xp_62_0 + xp_44_1 + xp_44_0 + xp_42_1 + xp_40_0 + xp_39_0
 + xp_21_1 + xp_12_1 + xp_10_2 + xp_2_0 <= 153.637538779731
 r_25: + xp_62_0 + xp_55_1 + xp_44_0 + xp_42_1 + xp_40_0 + xp_37_0
 + xp_35_0 + xp_33_0 + xp_10_2 <= 153.637538779731
 r_26: + xp_44_1 + xp_39_0 + xp_36_0 + xp_32_0 + xp_31_1
 <= 153.637538779731
 r_27: + xp_56_0 + xp_52_0 + xp_34_0 + xp_31_0 + xp_30_0
 <= 153.637538779731
 r_28: + xp_60_2 + xp_60_1 + xp_60_0 + xp_48_2 + xp_48_0 + xp_42_0
 + xp_27_0 + xp_25_0 + xp_24_2 + xp_21_0 + xp_18_1 + xp_8_0 + xp_6_0
 <= 149.23665791776
 r_29: + xp_29_0 + xp_28_0 + xp_24_1 + xp_22_0 + xp_6_1 + xp_0_1
 <= 149.23665791776
 r_30: + xp_63_0 + xp_28_1 + xp_26_0 + xp_24_0 + xp_23_0 + xp_22_2
 + xp_22_1 + xp_21_2 + xp_21_1 + xp_17_2 <= 151.25355450237
 r_31: + xp_58_0 + xp_28_0 + xp_24_1 + xp_22_0 + xp_19_0 + xp_17_1
 + xp_17_0 + xp_15_0 + xp_14_0 + xp_13_0 + xp_12_2 + xp_12_1
 <= 149.23665791776
 r_32: + xp_46_0 + xp_42_2 + xp_40_1 + xp_29_0 + xp_20_0 + xp_18_0
 + xp_16_0 + xp_15_1 + xp_12_0 + xp_6_1 <= 149.23665791776
 r_33: + xp_60_2 + xp_60_1 + xp_48_2 + xp_42_0 + xp_18_1 + xp_17_2
 + xp_11_0 <= 149.23665791776
 r_34: + xp_26_0 + xp_23_0 + xp_22_1 + xp_17_2 + xp_10_2 + xp_10_1
 + xp_7_0 + xp_4_0 + xp_3_1 <= 151.25355450237
 r_35: + xp_60_0 + xp_48_0 + xp_8_0 + xp_6_1 + xp_6_0 + xp_1_0 + xp_0_1
 <= 151.25355450237
 r_36: + xp_63_0 + xp_28_1 + xp_24_0 + xp_22_2 + xp_21_2 + xp_21_1
 + xp_10_0 + xp_9_0 + xp_5_0 + xp_3_0 + xp_2_1 + xp_2_0 + xp_0_0
 <= 151.25355450237

Bounds
 0 <= xp_0_0 <= 6.91489361702128
 0 <= xp_0_1 <= 20.7446808510638
 0 <= xp_1_0 <= 22.4113475177305
 0 <= xp_2_0 <= 12.3404255319149
 0 <= xp_2_1 <= 12.3404255319149
 0 <= xp_3_0 <= 7.16312056737589
 0 <= xp_3_1 <= 7.16312056737589
 0 <= xp_4_0 <= 28.0851063829787
 0 <= xp_5_0 <= 22.4113475177305
 0 <= xp_6_0 <= 12.9078014184397
 0 <= xp_6_1 <= 12.9078014184397
 0 <= xp_7_0 <= 21.8439716312057
 0 <= xp_8_0 <= 24.822695035461
 0 <= xp_9_0 <= 17.3049645390071
 0 <= xp_10_0 <= 4.04255319148936
 0 <= xp_10_1 <= 4.04255319148936
 0 <= xp_10_2 <= 8.08510638297872
 0 <= xp_11_0 <= 25.3900709219858
 0 <= xp_12_0 <= 8.29787234042553
 0 <= xp_12_1 <= 4.14893617021276
 0 <= xp_12_2 <= 4.14893617021276
 0 <= xp_13_0 <= 14.8936170212766
 0 <= xp_14_0 <= 22.5531914893617
 0 <= xp_15_0 <= 7.02127659574468
 0 <= xp_15_1 <= 21.063829787234
 0 <= xp_16_0 <= 26.8085106382979
 0 <= xp_17_0 <= 11.7730496453901
 0 <= xp_17_1 <= 5.88652482269503
 0 <= xp_17_2 <= 5.88652482269503
 0 <= xp_18_0 <= 5.0354609929078
 0 <= xp_18_1 <= 15.1063829787234
 0 <= xp_19_0 <= 19.4326241134752
 0 <= xp_20_0 <= 23.1205673758865
 0 <= xp_21_0 <= 4.64539007092198
 0 <= xp_21_1 <= 9.29078014184397
 0 <= xp_21_2 <= 4.64539007092198
 0 <= xp_22_0 <= 5.63829787234042
 0 <= xp_22_1 <= 11.2765957446808
 0 <= xp_22_2 <= 5.63829787234042
 0 <= xp_23_0 <= 23.2624113475177
 0 <= xp_24_0 <= 4.53900709219858
 0 <= xp_24_1 <= 9.07801418439716
 0 <= xp_24_2 <= 4.53900709219858
 0 <= xp_25_0 <= 27.6595744680851
 0 <= xp_26_0 <= 18.4397163120567
 0 <= xp_27_0 <= 14.8936170212766
 0 <= xp_28_0 <= 18.4042553191489
 0 <= xp_28_1 <= 6.13475177304964
 0 <= xp_29_0 <= 22.2695035460993
 0 <= xp_30_0 <= 27.5177304964539
 0 <= xp_31_0 <= 4.43262411347518
 0 <= xp_31_1 <= 13.2978723404255
 0 <= xp_32_0 <= 15.6028368794326
 0 <= xp_33_0 <= 18.7234042553191
 0 <= xp_34_0 <= 22.5531914893617
 0 <= xp_35_0 <= 15.4609929078014
 0 <= xp_36_0 <= 17.8723404255319
 0 <= xp_37_0 <= 14.1843971631206
 0 <= xp_38_0 <= 13.1914893617021
 0 <= xp_38_1 <= 4.39716312056737
 0 <= xp_39_0 <= 15.0354609929078
 0 <= xp_40_0 <= 14.468085106383
 0 <= xp_40_1 <= 4.82269503546099
 0 <= xp_41_0 <= 20.4255319148936
 0 <= xp_42_0 <= 11.9148936170213
 0 <= xp_42_1 <= 5.95744680851064
 0 <= xp_42_2 <= 5.95744680851064
 0 <= xp_43_0 <= 16.8794326241135
 0 <= xp_44_0 <= 13.5106382978723
 0 <= xp_44_1 <= 4.50354609929078
 0 <= xp_45_0 <= 14.8936170212766
 0 <= xp_46_0 <= 20.8510638297872
 0 <= xp_47_0 <= 19.8581560283688
 0 <= xp_48_0 <= 14.0425531914894
 0 <= xp_48_1 <= 7.02127659574468
 0 <= xp_48_2 <= 7.02127659574468
 0 <= xp_49_0 <= 14.7517730496454
 0 <= xp_50_0 <= 16.0283687943262
 0 <= xp_51_0 <= 23.9716312056738
 0 <= xp_52_0 <= 19.8936170212766
 0 <= xp_52_1 <= 6.63120567375886
 0 <= xp_53_0 <= 27.8014184397163
 0 <= xp_54_0 <= 27.3758865248227
 0 <= xp_55_0 <= 16.063829787234
 0 <= xp_55_1 <= 5.35460992907801
 0 <= xp_56_0 <= 15.0354609929078
 0 <= xp_57_0 <= 17.7304964539007
 0 <= xp_58_0 <= 27.5177304964539
 0 <= xp_59_0 <= 27.5177304964539
 0 <= xp_60_0 <= 8.72340425531915
 0 <= xp_60_1 <= 4.36170212765957
 0 <= xp_60_2 <= 4.36170212765957
 0 <= xp_61_0 <= 25.6737588652482
 0 <= xp_62_0 <= 27.3758865248227
 0 <= xp_63_0 <= 25.6737588652482
 0 <= xp_64_0 <= 27.6595744680851
 0 <= xp_65_0 <= 20

End
